experiments/sat_smt/run/sat-r+/results/tanya.res
solved=true
solvingTime=1.035580158233642578125
nActions=5