experiments/sat_smt/run/sat-r+/results/tanya.out
Timesteps: 1
s UNSATISFIABLE
real 0.12
user 0.01
sys 0.00
Timesteps: 2
s UNSATISFIABLE
real 0.08
user 0.02
sys 0.00
Timesteps: 3
s UNSATISFIABLE
real 0.12
user 0.04
sys 0.00
Timesteps: 4
s UNSATISFIABLE
real 0.30
user 0.21
sys 0.00
Timesteps: 5
s SATISFIABLE
real 0.18
user 0.10
sys 0.00
